<number of tasks>
32

<cycle time>
1768

<task times>
1 458
2 276
3 520
4 1400
5 352
6 196
7 214
8 456
9 646
10 512
11 408
12 262
13 544
14 202
15 458
16 694
17 616
18 678
19 328
20 324
21 100
22 352
23 544
24 500
25 382
26 858
27 388
28 352
29 428
30 238
31 258
32 196

<precedence relations>
1,5
2,6
3,9
4,15
5,6
6,7
6,8
6,9
7,21
8,21
9,10
9,11
10,16
11,12
12,13
13,14
13,15
14,16
14,17
15,17
16,18
17,19
18,21
19,20
20,21
21,22
21,23
21,24
22,25
23,32
24,32
25,26
26,27
27,28
28,29
29,30
30,31
31,32

<setup times forward>
1,2:134
1,4:134
1,5:186
2,1:134
2,3:134
2,5:52
2,6:52
3,2:134
3,4:134
3,5:186
3,6:186
3,7:140
3,8:186
3,9:186
4,1:134
4,3:134
4,5:52
4,6:52
4,7:6
4,8:52
4,9:52
4,10:46
4,11:46
4,12:46
4,13:46
4,14:31
4,15:76
4,16:31
4,18:31
5,2:52
5,3:186
5,4:52
6,3:186
6,4:52
6,7:46
7,3:140
7,4:6
7,8:46
7,9:46
7,10:52
7,11:52
7,12:52
7,13:52
7,14:37
7,15:70
7,16:37
7,17:70
7,18:37
7,19:70
7,20:70
8,3:186
8,4:52
8,7:46
8,10:98
8,11:98
8,12:98
8,13:98
8,14:83
8,15:24
8,16:83
8,17:24
8,18:83
8,19:24
8,20:24
8,21:46
9,4:52
9,7:46
9,10:98
9,11:98
10,4:46
10,7:52
10,8:98
10,14:15
10,15:122
10,16:15
10,17:122
10,19:122
10,20:122
11,4:46
11,7:52
11,8:98
12,4:46
12,7:52
12,8:98
13,4:46
13,7:52
13,8:98
13,14:15
13,15:122
14,4:31
14,7:37
14,8:83
14,10:15
14,15:107
14,17:107
15,7:70
15,8:24
15,10:122
15,14:107
15,16:107
15,18:107
16,4:31
16,7:37
16,8:83
16,15:107
16,17:107
16,19:107
16,20:107
17,7:70
17,8:24
17,10:122
17,16:107
17,18:107
18,4:31
18,7:37
18,8:83
18,15:107
18,17:107
18,19:107
18,20:107
18,21:37
19,7:70
19,8:24
19,10:122
19,16:107
19,18:107
20,7:70
20,8:24
20,10:122
20,16:107
20,18:107
20,21:70
22,25:112
23,25:112
23,26:112
23,27:112
23,28:76
23,29:76
23,30:76
23,31:76
23,32:76
24,25:112
24,26:112
24,27:112
24,28:76
24,29:76
24,30:76
24,31:76
24,32:76
25,23:112
25,24:112
26,23:112
26,24:112
27,23:112
27,24:112
27,28:188
28,23:76
28,24:76
29,23:76
29,24:76
30,23:76
30,24:76
31,23:76
31,24:76

<setup times backward>
1,1:42
1,2:176
1,3:42
1,4:176
2,2:42
2,4:42
2,5:94
3,1:42
3,2:176
3,3:42
3,4:176
3,5:228
3,6:228
3,7:182
3,8:228
4,2:42
4,4:42
4,5:94
4,6:94
4,7:48
4,8:94
4,9:94
4,14:11
4,16:11
4,18:11
5,5:42
6,5:42
6,6:42
7,2:36
7,4:36
7,5:88
7,6:88
7,7:42
7,8:88
7,9:88
7,14:5
7,15:112
7,16:5
7,17:112
7,18:5
7,19:112
7,20:112
8,5:42
8,6:42
8,8:42
8,9:42
8,15:66
8,17:66
8,19:66
8,20:66
9,5:42
9,6:42
9,8:42
9,9:42
10,2:88
10,4:88
10,5:140
10,6:140
10,7:94
10,8:140
10,9:140
10,10:42
10,11:42
10,12:42
10,13:42
10,14:57
10,15:164
10,17:164
10,19:164
10,20:164
11,2:88
11,4:88
11,5:140
11,6:140
11,7:94
11,8:140
11,9:140
11,10:42
11,11:42
12,2:88
12,4:88
12,5:140
12,6:140
12,7:94
12,8:140
12,9:140
12,10:42
12,11:42
12,12:42
13,2:88
13,4:88
13,5:140
13,6:140
13,7:94
13,8:140
13,9:140
13,10:42
13,11:42
13,12:42
13,13:42
14,2:73
14,4:73
14,5:125
14,6:125
14,7:79
14,8:125
14,9:125
14,10:27
14,11:27
14,12:27
14,13:27
14,14:42
14,15:149
15,5:18
15,6:18
15,8:18
15,9:18
15,15:42
16,2:73
16,4:73
16,5:125
16,6:125
16,7:79
16,8:125
16,9:125
16,10:27
16,11:27
16,12:27
16,13:27
16,14:42
16,15:149
16,16:42
16,17:149
16,19:149
16,20:149
17,5:18
17,6:18
17,8:18
17,9:18
17,15:42
17,17:42
18,2:73
18,4:73
18,5:125
18,6:125
18,7:79
18,8:125
18,9:125
18,10:27
18,11:27
18,12:27
18,13:27
18,14:42
18,15:149
18,16:42
18,17:149
18,18:42
18,19:149
18,20:149
19,5:18
19,6:18
19,8:18
19,9:18
19,15:42
19,17:42
19,19:42
20,5:18
20,6:18
20,8:18
20,9:18
20,15:42
20,17:42
20,19:42
20,20:42
21,2:36
21,4:36
21,5:88
21,6:88
21,7:42
21,8:88
21,9:88
21,14:5
21,15:112
21,16:5
21,17:112
21,18:5
21,19:112
21,20:112
21,21:42
22,2:36
22,4:36
22,5:88
22,6:88
22,7:42
22,8:88
22,9:88
22,14:5
22,15:112
22,16:5
22,17:112
22,18:5
22,19:112
22,20:112
22,21:42
22,22:42
22,23:42
22,24:42
23,2:36
23,4:36
23,5:88
23,6:88
23,7:42
23,8:88
23,9:88
23,14:5
23,15:112
23,16:5
23,17:112
23,18:5
23,19:112
23,20:112
23,21:42
23,22:42
23,23:42
23,24:42
23,25:154
23,26:154
23,27:154
24,2:36
24,4:36
24,5:88
24,6:88
24,7:42
24,8:88
24,9:88
24,14:5
24,15:112
24,16:5
24,17:112
24,18:5
24,19:112
24,20:112
24,21:42
24,22:42
24,23:42
24,24:42
24,25:154
24,26:154
24,27:154
25,25:42
26,25:42
26,26:42
27,25:42
27,26:42
27,27:42
28,2:112
28,4:112
28,5:164
28,6:164
28,7:118
28,8:164
28,9:164
28,10:66
28,11:66
28,12:66
28,13:66
28,14:81
28,15:188
28,16:81
28,17:188
28,18:81
28,19:188
28,20:188
28,21:118
28,22:118
28,23:118
28,24:118
28,25:230
28,26:230
28,27:230
28,28:42
29,2:112
29,4:112
29,5:164
29,6:164
29,7:118
29,8:164
29,9:164
29,10:66
29,11:66
29,12:66
29,13:66
29,14:81
29,15:188
29,16:81
29,17:188
29,18:81
29,19:188
29,20:188
29,21:118
29,22:118
29,23:118
29,24:118
29,25:230
29,26:230
29,27:230
29,28:42
29,29:42
30,2:112
30,4:112
30,5:164
30,6:164
30,7:118
30,8:164
30,9:164
30,10:66
30,11:66
30,12:66
30,13:66
30,14:81
30,15:188
30,16:81
30,17:188
30,18:81
30,19:188
30,20:188
30,21:118
30,22:118
30,23:118
30,24:118
30,25:230
30,26:230
30,27:230
30,28:42
30,29:42
30,30:42
31,2:112
31,4:112
31,5:164
31,6:164
31,7:118
31,8:164
31,9:164
31,10:66
31,11:66
31,12:66
31,13:66
31,14:81
31,15:188
31,16:81
31,17:188
31,18:81
31,19:188
31,20:188
31,21:118
31,22:118
31,23:118
31,24:118
31,25:230
31,26:230
31,27:230
31,28:42
31,29:42
31,30:42
31,31:42
32,2:112
32,4:112
32,5:164
32,6:164
32,7:118
32,8:164
32,9:164
32,10:66
32,11:66
32,12:66
32,13:66
32,14:81
32,15:188
32,16:81
32,17:188
32,18:81
32,19:188
32,20:188
32,21:118
32,22:118
32,23:118
32,24:118
32,25:230
32,26:230
32,27:230
32,28:42
32,29:42
32,30:42
32,31:42
32,32:42

<end>

<optimal SALBP-1 value>
9


<rand seed>
467321153

